;; Mutation-Based Equivalence Benchmark
;; Source:     AutomatArk / instance10729.smt2
;; Mutations:  intersect_max_len_10, intersect_no_dot_dot
;; Status:     sat
;;
;; Original regex vs mutated regex
;; Equivalence check: unsat ⟺ L(R1) = L(R2)

(set-info :smt-lib-version 2.6)
(set-info :category "mutation")
(set-info :status sat)
(set-logic QF_S)


;; R1: original
;; R2: mutated (intersect_max_len_10, intersect_no_dot_dot)
(assert
  (not
    (=
      (re.++ (re.union (str.to_re "R.R.") (re.++ (str.to_re "RURAL") (re.* (re.union (str.to_re " ") (str.to_re "\u{9}") (str.to_re "\u{a}") (str.to_re "\u{c}") (str.to_re "\u{d}"))) (str.to_re "R") (re.union (str.to_re "OUTE") (str.to_re "T.")))) (re.* (re.union (str.to_re " ") (str.to_re "\u{9}") (str.to_re "\u{a}") (str.to_re "\u{c}") (str.to_re "\u{d}"))) (re.+ (re.range "0" "9")) (str.to_re ",") (re.+ (re.union (str.to_re " ") (str.to_re "\u{9}") (str.to_re "\u{a}") (str.to_re "\u{c}") (str.to_re "\u{d}"))) (str.to_re "BOX") (re.* (re.union (str.to_re " ") (str.to_re "\u{9}") (str.to_re "\u{a}") (str.to_re "\u{c}") (str.to_re "\u{d}"))) (re.range "0" "9") (str.to_re "\u{a}"))
      (re.++ (re.union (str.to_re "R.R.") (re.++ (str.to_re "RURAL") (re.inter (re.* (re.union (str.to_re " ") (str.to_re "\u{9}") (str.to_re "\u{a}") (str.to_re "\u{c}") (str.to_re "\u{d}"))) (re.comp (re.++ re.all (str.to_re "..") re.all))) (str.to_re "R") (re.union (str.to_re "OUTE") (str.to_re "T.")))) (re.* (re.union (str.to_re " ") (str.to_re "\u{9}") (str.to_re "\u{a}") (str.to_re "\u{c}") (str.to_re "\u{d}"))) (re.+ (re.range "0" "9")) (str.to_re ",") (re.+ (re.inter (re.union (str.to_re " ") (str.to_re "\u{9}") (str.to_re "\u{a}") (str.to_re "\u{c}") (str.to_re "\u{d}")) ((_ re.loop 0 10) re.allchar))) (str.to_re "BOX") (re.* (re.union (str.to_re " ") (str.to_re "\u{9}") (str.to_re "\u{a}") (str.to_re "\u{c}") (str.to_re "\u{d}"))) (re.range "0" "9") (str.to_re "\u{a}")))))

(check-sat)
(exit)
